NAME : morphed18-5-1
COMMENT : Generated using the function morphInstances from the R-package netgen (Bossek,2015) - Number of clusters: 5 Alpha: 0.5
TYPE : TSP
DIMENSION : 18
EDGE_WEIGHT_TYPE : EUC_2D
NODE_COORD_SECTION
1 36.5519578013 28.4443078988
2 39.9072556564 72.9396605327
3 71.2720267926 96.6115009988
4 79.9112058971 25.1118361298
5 15.5846099948 59.8549086794
6 74.8196710717 17.8839505722
7 96.6330870654 62.268542746
8 61.4546253043 30.4258684517
9 59.9271209681 7.93633103
10 4.5687866832 42.6543814846
11 24.2634176266 81.7895365233
12 12.3533321306 41.7053522053
13 78.9402755068 72.2788446366
14 38.7733498969 63.5882860913
15 83.5896276334 74.3005045556
16 49.5623088556 17.8736190995
17 75.2788379158 84.9002777146
18 99.4408979939 82.0220486107
EOF
